# Solution for model GasLib-40
# Objective value = 1.0495036348345652e+01
loadshed[innode_1] 0
loadshed[innode_2] 0
loadshed[innode_3] 0
loadshed[innode_4] 0
loadshed[innode_5] 0
loadshed[innode_6] 0
loadshed[innode_7] 0
loadshed[innode_8] 0
loadshed[source_1] -1.9632372404305243e-01
loadshed[source_2] -2.7692633729969218e-02
loadshed[source_3] 2.9040270673681323e-01
loadshed[sink_1] 0
loadshed[sink_2] 0
loadshed[sink_3] 0
loadshed[sink_4] 0
loadshed[sink_5] 0
loadshed[sink_6] 0
loadshed[sink_7] 0
loadshed[sink_8] 0
loadshed[sink_9] 0
loadshed[sink_10] 0
loadshed[sink_11] 0
loadshed[sink_12] 6.4173470665043475e-01
loadshed[sink_13] 0
loadshed[sink_14] 0
loadshed[sink_15] 0
loadshed[sink_16] 0
loadshed[sink_17] 0
loadshed[sink_18] 0
loadshed[sink_19] 0
loadshed[sink_20] 0
loadshed[sink_21] 0
loadshed[sink_22] 0
loadshed[sink_23] 0
loadshed[sink_24] 0
loadshed[sink_25] 0
loadshed[sink_26] 0
loadshed[sink_27] 0
loadshed[sink_28] 0
loadshed[sink_29] 0
flow[source_1,sink_3] 1.8912714984611171e+02
flow[innode_1,sink_16] 1.6354166666666970e+01
flow[innode_6,sink_13] 2.2987334643310184e+00
flow[sink_13,sink_14] -1.4055433202335649e+01
flow[sink_14,sink_10] -3.0409599869002317e+01
flow[sink_25,sink_26] 1.5304663031832126e+02
flow[sink_26,sink_9] 1.3669246365165426e+02
flow[sink_9,sink_18] 1.2033829698498759e+02
flow[sink_26,sink_4] 0
flow[sink_4,sink_20] -3.2122754492429408e+01
flow[sink_18,sink_6] 1.0398413031832092e+02
flow[sink_25,innode_8] -1.5641881651277535e+02
flow[sink_6,sink_7] 5.4921630318321021e+01
flow[sink_6,sink_22] 3.2708333333333641e+01
flow[sink_7,sink_24] 3.8567463651654350e+01
flow[sink_22,sink_1] 1.6354166666666970e+01
flow[sink_24,sink_21] 2.2213296984987682e+01
flow[sink_21,sink_12] 5.8591303183210153e+00
flow[sink_7,sink_5] 0
flow[sink_5,sink_17] -1.6354166666667197e+01
flow[sink_17,sink_4] -1.5768587825762740e+01
flow[sink_17,sink_8] -1.6939745507571121e+01
flow[sink_3,sink_23] 16.3541666666697
flow[sink_8,sink_20] -3.3293912174237789e+01
flow[sink_25,sink_20] 8.1770833333333883e+01
flow[sink_25,sink_15] -9.7051547269878952e+01
flow[sink_15,sink_29] -6.3172079737656055e+01
flow[sink_29,sink_28] 1.6354166666667879e+01
flow[sink_29,sink_2] 6.6587800865556247e+01
flow[sink_2,sink_15] 5.0233634198889575e+01
flow[sink_29,innode_7] -1.6246821393654687e+02
flow[innode_4,sink_19] 0
flow[sink_19,innode_3] 38.7820492845223
flow[innode_4,innode_5] 1.1218043320233643e+02
flow[sink_27,innode_5] -1.1218043320233643e+02
flow[sink_27,sink_19] 9.5826266535669760e+01
flow[sink_10,sink_11] 3.2708333333333641e+01
flow[sink_10,innode_2] -40.6900505844804
flow[sink_10,innode_3] -38.7820492845223
flow[innode_6,sink_25] -2.2987334643310184e+00
flow[sink_11,innode_1] 1.6354166666666970e+01
flow[sink_19,innode_2] 40.6900505844804
flow[source_3,innode_4] 1.1218043320233643e+02
flow[source_2,innode_7] 1.6246821393654687e+02
flow[sink_3,innode_8] 1.5641881651277535e+02
pressure[innode_1] 7.5645432211349274e+01
pressure[innode_2] 77.9477707477556
pressure[innode_3] 7.7861892291205649e+01
pressure[innode_4] 81.01325
pressure[innode_5] 8.0936086382750872e+01
pressure[innode_6] 7.4346321283128049e+01
pressure[innode_7] 81.01325
pressure[innode_8] 8.0381070187254437e+01
pressure[source_1] 81.01325
pressure[source_2] 81.01325
pressure[source_3] 81.01325
pressure[sink_1] 46.1539784999661
pressure[sink_2] 74.9811176008784
pressure[sink_3] 8.0381070187254437e+01
pressure[sink_4] 5.2495730010077907e+01
pressure[sink_5] 5.0674839373333619e+01
pressure[sink_6] 4.8255056110353472e+01
pressure[sink_7] 4.7501113039435694e+01
pressure[sink_8] 5.2532287185065677e+01
pressure[sink_9] 5.5385940246021562e+01
pressure[sink_10] 7.5797133518952819e+01
pressure[sink_11] 7.5645432211349274e+01
pressure[sink_12] 1.0132500000000042e+00
pressure[sink_13] 7.4333648749693239e+01
pressure[sink_14] 7.4358802144667010e+01
pressure[sink_15] 7.4817115856533690e+01
pressure[sink_16] 74.6237823765316
pressure[sink_17] 5.1893106578688368e+01
pressure[sink_18] 51.0317419912954
pressure[sink_19] 77.9477707477556
pressure[sink_20] 5.4852404642299106e+01
pressure[sink_21] 3.0982492387100282e+00
pressure[sink_22] 4.7217747642321115e+01
pressure[sink_23] 8.0216352175594650e+01
pressure[sink_24] 3.3442408642044583e+00
pressure[sink_25] 7.4346321283128049e+01
pressure[sink_26] 6.3567336989110338e+01
pressure[sink_27] 8.0005196074323692e+01
pressure[sink_28] 7.6372579472077049e+01
pressure[sink_29] 7.6667861745694239e+01
interdiction[source_1,sink_3] 0
interdiction[innode_1,sink_16] 0
interdiction[innode_6,sink_13] 0
interdiction[sink_13,sink_14] 0
interdiction[sink_14,sink_10] 0
interdiction[sink_25,sink_26] 0
interdiction[sink_26,sink_9] 0
interdiction[sink_9,sink_18] 0
interdiction[sink_26,sink_4] 1
interdiction[sink_4,sink_20] 0
interdiction[sink_18,sink_6] 0
interdiction[sink_25,innode_8] 0
interdiction[sink_6,sink_7] 0
interdiction[sink_6,sink_22] 0
interdiction[sink_7,sink_24] 0
interdiction[sink_22,sink_1] 0
interdiction[sink_24,sink_21] 0
interdiction[sink_21,sink_12] 0
interdiction[sink_7,sink_5] 1
interdiction[sink_5,sink_17] 0
interdiction[sink_17,sink_4] 0
interdiction[sink_17,sink_8] 0
interdiction[sink_3,sink_23] 0
interdiction[sink_8,sink_20] 0
interdiction[sink_25,sink_20] 0
interdiction[sink_25,sink_15] 0
interdiction[sink_15,sink_29] 0
interdiction[sink_29,sink_28] 0
interdiction[sink_29,sink_2] 0
interdiction[sink_2,sink_15] 0
interdiction[sink_29,innode_7] 0
interdiction[innode_4,sink_19] 1
interdiction[sink_19,innode_3] 0
interdiction[innode_4,innode_5] 0
interdiction[sink_27,innode_5] 0
interdiction[sink_27,sink_19] 0
interdiction[sink_10,sink_11] 0
interdiction[sink_10,innode_2] 0
interdiction[sink_10,innode_3] 0
interdiction[innode_6,sink_25] 0
interdiction[sink_11,innode_1] 0
interdiction[sink_19,innode_2] 0
interdiction[source_3,innode_4] 0
interdiction[source_2,innode_7] 0
interdiction[sink_3,innode_8] 0
WCcheckFlow[source_1,sink_3] 39
WCcheckFlow[innode_1,sink_16] 1
WCcheckFlow[innode_6,sink_13] 13
WCcheckFlow[sink_13,sink_14] 12
WCcheckFlow[sink_14,sink_10] 11
WCcheckFlow[sink_25,sink_26] 10
WCcheckFlow[sink_26,sink_9] 9
WCcheckFlow[sink_9,sink_18] 8
WCcheckFlow[sink_26,sink_4] 0
WCcheckFlow[sink_4,sink_20] -4
WCcheckFlow[sink_18,sink_6] 7
WCcheckFlow[sink_25,innode_8] -36
WCcheckFlow[sink_6,sink_7] 4
WCcheckFlow[sink_6,sink_22] 2
WCcheckFlow[sink_7,sink_24] 3
WCcheckFlow[sink_22,sink_1] 1
WCcheckFlow[sink_24,sink_21] 2
WCcheckFlow[sink_21,sink_12] 1
WCcheckFlow[sink_7,sink_5] 0
WCcheckFlow[sink_5,sink_17] -1
WCcheckFlow[sink_17,sink_4] -3
WCcheckFlow[sink_17,sink_8] 1
WCcheckFlow[sink_3,sink_23] 1
WCcheckFlow[sink_8,sink_20] 0
WCcheckFlow[sink_25,sink_20] 5
WCcheckFlow[sink_25,sink_15] 6
WCcheckFlow[sink_15,sink_29] 5
WCcheckFlow[sink_29,sink_28] 1
WCcheckFlow[sink_29,sink_2] 1
WCcheckFlow[sink_2,sink_15] 0
WCcheckFlow[sink_29,innode_7] 2
WCcheckFlow[innode_4,sink_19] 0
WCcheckFlow[sink_19,innode_3] -5
WCcheckFlow[innode_4,innode_5] -2
WCcheckFlow[sink_27,innode_5] 3
WCcheckFlow[sink_27,sink_19] -4
WCcheckFlow[sink_10,sink_11] 3
WCcheckFlow[sink_10,innode_2] 1
WCcheckFlow[sink_10,innode_3] 6
WCcheckFlow[innode_6,sink_25] -14
WCcheckFlow[sink_11,innode_1] 2
WCcheckFlow[sink_19,innode_2] 0
WCcheckFlow[source_3,innode_4] -1
WCcheckFlow[source_2,innode_7] -1
WCcheckFlow[sink_3,innode_8] 37
